NAME: map6_480
TYPE: TSP
COMMENT: autogenerated using a wonderful map creator
DIMENSION: 600
EDGE_WEIGHT_TYPE: EUC_2D
NODE_COORD_SECTION
1 1.0 5.0
2 1.0 4.0
3 4.0 5.0
4 4.0 4.0
5 7.0 5.0
6 7.0 4.0
7 10.0 5.0
8 10.0 4.0
9 13.0 5.0
10 13.0 4.0
11 16.0 5.0
12 16.0 4.0
13 19.0 5.0
14 19.0 4.0
15 22.0 5.0
16 22.0 4.0
17 25.0 5.0
18 25.0 4.0
19 28.0 5.0
20 28.0 4.0
21 31.0 5.0
22 31.0 4.0
23 34.0 5.0
24 34.0 4.0
25 37.0 5.0
26 37.0 4.0
27 40.0 5.0
28 40.0 4.0
29 43.0 5.0
30 43.0 4.0
31 1.0 95.0
32 1.0 96.0
33 4.0 95.0
34 4.0 96.0
35 7.0 95.0
36 7.0 96.0
37 10.0 95.0
38 10.0 96.0
39 13.0 95.0
40 13.0 96.0
41 16.0 95.0
42 16.0 96.0
43 19.0 95.0
44 19.0 96.0
45 22.0 95.0
46 22.0 96.0
47 25.0 95.0
48 25.0 96.0
49 28.0 95.0
50 28.0 96.0
51 31.0 95.0
52 31.0 96.0
53 34.0 95.0
54 34.0 96.0
55 37.0 95.0
56 37.0 96.0
57 40.0 95.0
58 40.0 96.0
59 43.0 95.0
60 43.0 96.0
61 1.0 3.0
62 4.0 97.0
63 7.0 3.0
64 10.0 97.0
65 13.0 3.0
66 16.0 97.0
67 19.0 3.0
68 22.0 97.0
69 25.0 3.0
70 28.0 97.0
71 31.0 3.0
72 34.0 97.0
73 37.0 3.0
74 40.0 97.0
75 43.0 3.0
76 1.0 2.0
77 4.0 98.0
78 7.0 2.0
79 10.0 98.0
80 13.0 2.0
81 16.0 98.0
82 19.0 2.0
83 22.0 98.0
84 25.0 2.0
85 28.0 98.0
86 31.0 2.0
87 34.0 98.0
88 37.0 2.0
89 40.0 98.0
90 43.0 2.0
91 1.0 97.0
92 4.0 3.0
93 7.0 97.0
94 10.0 3.0
95 13.0 97.0
96 16.0 3.0
97 19.0 97.0
98 22.0 3.0
99 25.0 97.0
100 28.0 3.0
101 31.0 97.0
102 34.0 3.0
103 37.0 97.0
104 40.0 3.0
105 43.0 97.0
106 1.0 98.0
107 4.0 2.0
108 7.0 98.0
109 10.0 2.0
110 13.0 98.0
111 16.0 2.0
112 19.0 98.0
113 22.0 2.0
114 25.0 98.0
115 28.0 2.0
116 31.0 98.0
117 34.0 2.0
118 37.0 98.0
119 40.0 2.0
120 43.0 98.0
121 2.0 95.0
122 2.0 96.0
123 5.0 95.0
124 5.0 96.0
125 8.0 95.0
126 8.0 96.0
127 11.0 95.0
128 11.0 96.0
129 14.0 95.0
130 14.0 96.0
131 17.0 95.0
132 17.0 96.0
133 20.0 95.0
134 20.0 96.0
135 23.0 95.0
136 23.0 96.0
137 26.0 95.0
138 26.0 96.0
139 29.0 95.0
140 29.0 96.0
141 32.0 95.0
142 32.0 96.0
143 35.0 95.0
144 35.0 96.0
145 38.0 95.0
146 38.0 96.0
147 41.0 95.0
148 41.0 96.0
149 44.0 95.0
150 44.0 96.0
151 2.0 5.0
152 2.0 4.0
153 5.0 5.0
154 5.0 4.0
155 8.0 5.0
156 8.0 4.0
157 11.0 5.0
158 11.0 4.0
159 14.0 5.0
160 14.0 4.0
161 17.0 5.0
162 17.0 4.0
163 20.0 5.0
164 20.0 4.0
165 23.0 5.0
166 23.0 4.0
167 26.0 5.0
168 26.0 4.0
169 29.0 5.0
170 29.0 4.0
171 32.0 5.0
172 32.0 4.0
173 35.0 5.0
174 35.0 4.0
175 38.0 5.0
176 38.0 4.0
177 41.0 5.0
178 41.0 4.0
179 44.0 5.0
180 44.0 4.0
181 2.0 97.0
182 5.0 3.0
183 8.0 97.0
184 11.0 3.0
185 14.0 97.0
186 17.0 3.0
187 20.0 97.0
188 23.0 3.0
189 26.0 97.0
190 29.0 3.0
191 32.0 97.0
192 35.0 3.0
193 38.0 97.0
194 41.0 3.0
195 44.0 97.0
196 2.0 98.0
197 5.0 2.0
198 8.0 98.0
199 11.0 2.0
200 14.0 98.0
201 17.0 2.0
202 20.0 98.0
203 23.0 2.0
204 26.0 98.0
205 29.0 2.0
206 32.0 98.0
207 35.0 2.0
208 38.0 98.0
209 41.0 2.0
210 44.0 98.0
211 2.0 3.0
212 5.0 97.0
213 8.0 3.0
214 11.0 97.0
215 14.0 3.0
216 17.0 97.0
217 20.0 3.0
218 23.0 97.0
219 26.0 3.0
220 29.0 97.0
221 32.0 3.0
222 35.0 97.0
223 38.0 3.0
224 41.0 97.0
225 44.0 3.0
226 2.0 2.0
227 5.0 98.0
228 8.0 2.0
229 11.0 98.0
230 14.0 2.0
231 17.0 98.0
232 20.0 2.0
233 23.0 98.0
234 26.0 2.0
235 29.0 98.0
236 32.0 2.0
237 35.0 98.0
238 38.0 2.0
239 41.0 98.0
240 44.0 2.0
241 13.0 88.0
242 28.0 58.0
243 40.0 50.0
244 10.0 27.0
245 10.0 36.0
246 37.0 8.0
247 22.0 37.0
248 37.0 35.0
249 43.0 69.0
250 13.0 65.0
251 1.0 72.0
252 16.0 79.0
253 13.0 92.0
254 16.0 88.0
255 7.0 30.0
256 28.0 80.0
257 40.0 45.0
258 28.0 89.0
259 40.0 54.0
260 41.0 28.0
261 10.0 31.0
262 25.0 29.0
263 10.0 49.0
264 22.0 14.0
265 22.0 23.0
266 31.0 90.0
267 37.0 21.0
268 22.0 32.0
269 14.0 28.0
270 3.0 28.0
271 4.0 82.0
272 16.0 65.0
273 13.0 78.0
274 36.0 61.0
275 16.0 92.0
276 28.0 57.0
277 28.0 66.0
278 40.0 40.0
279 40.0 49.0
280 10.0 8.0
281 10.0 26.0
282 22.0 9.0
283 34.0 11.0
284 31.0 76.0
285 12.0 72.0
286 37.0 16.0
287 22.0 27.0
288 1.0 53.0
289 43.0 77.0
290 28.0 25.0
291 1.0 71.0
292 13.0 82.0
293 9.0 39.0
294 16.0 87.0
295 5.0 50.0
296 40.0 44.0
297 19.0 79.0
298 10.0 30.0
299 25.0 28.0
300 31.0 71.0
301 22.0 13.0
302 31.0 89.0
303 43.0 54.0
304 43.0 63.0
305 4.0 81.0
306 16.0 46.0
307 34.0 91.0
308 28.0 29.0
309 1.0 75.0
310 16.0 73.0
311 1.0 84.0
312 28.0 56.0
313 21.0 17.0
314 6.0 28.0
315 40.0 30.0
316 7.0 91.0
317 19.0 65.0
318 31.0 48.0
319 25.0 14.0
320 10.0 25.0
321 39.0 61.0
322 19.0 92.0
323 31.0 57.0
324 31.0 66.0
325 4.0 49.0
326 31.0 75.0
327 4.0 58.0
328 31.0 84.0
329 4.0 67.0
330 13.0 54.0
331 16.0 50.0
332 37.0 91.0
333 38.0 83.0
334 7.0 77.0
335 7.0 86.0
336 19.0 60.0
337 31.0 34.0
338 10.0 11.0
339 23.0 39.0
340 31.0 52.0
341 32.0 17.0
342 11.0 83.0
343 13.0 13.0
344 4.0 44.0
345 43.0 35.0
346 16.0 27.0
347 1.0 38.0
348 4.0 71.0
349 13.0 49.0
350 16.0 45.0
351 34.0 90.0
352 5.0 17.0
353 37.0 86.0
354 17.0 28.0
355 28.0 28.0
356 7.0 63.0
357 42.0 39.0
358 7.0 81.0
359 19.0 46.0
360 31.0 29.0
361 19.0 82.0
362 31.0 47.0
363 31.0 56.0
364 4.0 39.0
365 1.0 15.0
366 31.0 65.0
367 4.0 48.0
368 16.0 13.0
369 43.0 30.0
370 4.0 57.0
371 32.0 39.0
372 25.0 89.0
373 34.0 67.0
374 16.0 31.0
375 37.0 63.0
376 16.0 40.0
377 34.0 76.0
378 37.0 72.0
379 16.0 49.0
380 34.0 85.0
381 37.0 81.0
382 7.0 67.0
383 7.0 76.0
384 8.0 50.0
385 30.0 50.0
386 39.0 28.0
387 40.0 91.0
388 13.0 12.0
389 43.0 25.0
390 1.0 19.0
391 43.0 34.0
392 4.0 52.0
393 1.0 37.0
394 37.0 58.0
395 3.0 83.0
396 38.0 50.0
397 7.0 44.0
398 31.0 10.0
399 19.0 54.0
400 31.0 28.0
401 31.0 37.0
402 4.0 20.0
403 4.0 29.0
404 1.0 14.0
405 4.0 47.0
406 34.0 48.0
407 25.0 79.0
408 10.0 90.0
409 16.0 21.0
410 37.0 53.0
411 37.0 62.0
412 34.0 75.0
413 37.0 71.0
414 7.0 48.0
415 7.0 66.0
416 40.0 90.0
417 12.0 28.0
418 4.0 24.0
419 25.0 56.0
420 34.0 34.0
421 25.0 65.0
422 13.0 11.0
423 25.0 74.0
424 1.0 18.0
425 10.0 85.0
426 34.0 52.0
427 37.0 48.0
428 25.0 92.0
429 7.0 34.0
430 19.0 8.0
431 7.0 52.0
432 8.0 17.0
433 42.0 28.0
434 40.0 67.0
435 40.0 76.0
436 31.0 18.0
437 6.0 83.0
438 41.0 50.0
439 4.0 28.0
440 25.0 60.0
441 34.0 38.0
442 34.0 47.0
443 22.0 63.0
444 7.0 29.0
445 28.0 79.0
446 7.0 56.0
447 40.0 62.0
448 40.0 71.0
449 40.0 80.0
450 25.0 37.0
451 4.0 14.0
452 25.0 46.0
453 22.0 22.0
454 34.0 24.0
455 10.0 75.0
456 22.0 40.0
457 34.0 42.0
458 10.0 84.0
459 22.0 58.0
460 13.0 77.0
461 43.0 90.0
462 37.0 56.0
463 13.0 86.0
464 15.0 28.0
465 7.0 42.0
466 40.0 39.0
467 40.0 75.0
468 10.0 34.0
469 10.0 43.0
470 25.0 41.0
471 22.0 17.0
472 34.0 19.0
473 43.0 67.0
474 24.0 72.0
475 35.0 72.0
476 1.0 79.0
477 7.0 10.0
478 16.0 77.0
479 13.0 90.0
480 28.0 60.0
481 28.0 69.0
482 28.0 78.0
483 40.0 52.0
484 9.0 83.0
485 29.0 61.0
486 40.0 70.0
487 25.0 18.0
488 25.0 36.0
489 34.0 14.0
490 37.0 10.0
491 10.0 56.0
492 34.0 23.0
493 22.0 21.0
494 31.0 88.0
495 22.0 30.0
496 37.0 28.0
497 4.0 89.0
498 13.0 67.0
499 43.0 80.0
500 16.0 63.0
501 1.0 74.0
502 43.0 89.0
503 16.0 72.0
504 28.0 46.0
505 1.0 92.0
506 7.0 23.0
507 28.0 55.0
508 40.0 29.0
509 28.0 73.0
510 40.0 38.0
511 10.0 15.0
512 25.0 13.0
513 21.0 61.0
514 10.0 24.0
515 10.0 33.0
516 25.0 31.0
517 34.0 9.0
518 31.0 74.0
519 34.0 18.0
520 20.0 83.0
521 37.0 14.0
522 31.0 92.0
523 37.0 23.0
524 4.0 84.0
525 43.0 66.0
526 13.0 62.0
527 43.0 75.0
528 16.0 58.0
529 28.0 32.0
530 13.0 80.0
531 7.0 9.0
532 13.0 89.0
533 1.0 87.0
534 28.0 50.0
535 28.0 59.0
536 28.0 68.0
537 25.0 8.0
538 10.0 19.0
539 10.0 28.0
540 13.0 39.0
541 31.0 87.0
542 12.0 83.0
543 13.0 48.0
544 16.0 62.0
545 28.0 27.0
546 28.0 45.0
547 40.0 10.0
548 6.0 17.0
549 40.0 19.0
550 40.0 28.0
551 40.0 37.0
552 10.0 14.0
553 31.0 46.0
554 10.0 23.0
555 25.0 21.0
556 31.0 64.0
557 43.0 29.0
558 13.0 25.0
559 4.0 56.0
560 43.0 38.0
561 13.0 34.0
562 13.0 43.0
563 16.0 39.0
564 1.0 50.0
565 4.0 83.0
566 16.0 48.0
567 28.0 22.0
568 16.0 66.0
569 40.0 14.0
570 7.0 84.0
571 40.0 32.0
572 6.0 39.0
573 19.0 67.0
574 10.0 9.0
575 31.0 41.0
576 11.0 72.0
577 20.0 50.0
578 43.0 24.0
579 39.0 72.0
580 43.0 33.0
581 31.0 77.0
582 4.0 60.0
583 16.0 25.0
584 43.0 51.0
585 16.0 34.0
586 13.0 47.0
587 1.0 45.0
588 34.0 79.0
589 28.0 8.0
590 22.0 86.0
591 16.0 61.0
592 28.0 44.0
593 10.0 13.0
594 43.0 10.0
595 19.0 89.0
596 4.0 37.0
597 43.0 28.0
598 4.0 55.0
599 4.0 64.0
600 1.0 49.0
601 28.0 12.0
602 28.0 21.0
603 9.0 17.0
604 5.0 28.0
605 7.0 74.0
606 30.0 39.0
607 39.0 17.0
608 42.0 50.0
609 27.0 61.0
610 4.0 23.0
611 41.0 72.0
612 4.0 32.0
613 43.0 23.0
614 13.0 19.0
615 43.0 32.0
616 13.0 28.0
617 35.0 28.0
618 4.0 59.0
619 16.0 24.0
620 25.0 82.0
621 13.0 37.0
622 34.0 78.0
623 22.0 76.0
624 3.0 72.0
625 14.0 72.0
626 22.0 85.0
627 7.0 69.0
628 40.0 84.0
629 31.0 26.0
630 39.0 39.0
631 19.0 70.0
632 4.0 18.0
633 4.0 27.0
634 33.0 72.0
635 10.0 79.0
636 25.0 86.0
637 16.0 28.0
638 22.0 62.0
639 1.0 39.0
640 37.0 60.0
641 22.0 80.0
642 28.0 11.0
643 37.0 78.0
644 22.0 89.0
645 26.0 50.0
646 15.0 50.0
647 7.0 46.0
648 7.0 55.0
649 19.0 20.0
650 19.0 29.0
651 19.0 38.0
652 7.0 82.0
653 31.0 21.0
654 31.0 30.0
655 4.0 22.0
656 4.0 31.0
657 34.0 32.0
658 43.0 13.0
659 25.0 63.0
660 10.0 74.0
661 10.0 83.0
662 34.0 50.0
663 10.0 92.0
664 16.0 23.0
665 7.0 32.0
666 18.0 50.0
667 42.0 17.0
668 19.0 24.0
669 7.0 68.0
670 19.0 42.0
671 40.0 74.0
672 31.0 16.0
673 29.0 83.0
674 4.0 8.0
675 4.0 17.0
676 4.0 26.0
677 10.0 69.0
678 10.0 78.0
679 22.0 43.0
680 25.0 76.0
681 3.0 39.0
682 10.0 87.0
683 22.0 52.0
684 2.0 83.0
685 37.0 50.0
686 22.0 70.0
687 36.0 72.0
688 7.0 45.0
689 19.0 10.0
690 28.0 77.0
691 7.0 54.0
692 28.0 86.0
693 19.0 28.0
694 40.0 69.0
695 31.0 11.0
696 40.0 78.0
697 10.0 46.0
698 25.0 53.0
699 22.0 29.0
700 37.0 27.0
701 34.0 49.0
702 22.0 56.0
703 37.0 54.0
704 26.0 17.0
705 15.0 17.0
706 16.0 89.0
707 19.0 14.0
708 28.0 81.0
709 28.0 90.0
710 40.0 64.0
711 10.0 41.0
712 34.0 8.0
713 25.0 39.0
714 4.0 16.0
715 34.0 35.0
716 10.0 77.0
717 34.0 44.0
718 22.0 51.0
719 13.0 70.0
720 43.0 92.0
START_DEPOT_SECTION
1
2
3
4
5
6
7
8
9
10
11
12
13
14
15
16
17
18
19
20
21
22
23
24
25
26
27
28
29
30
31
32
33
34
35
36
37
38
39
40
41
42
43
44
45
46
47
48
49
50
51
52
53
54
55
56
57
58
59
60
61
62
63
64
65
66
67
68
69
70
71
72
73
74
75
76
77
78
79
80
81
82
83
84
85
86
87
88
89
90
91
92
93
94
95
96
97
98
99
100
101
102
103
104
105
106
107
108
109
110
111
112
113
114
115
116
117
118
119
120
-1
END_DEPOT_SECTION
121
122
123
124
125
126
127
128
129
130
131
132
133
134
135
136
137
138
139
140
141
142
143
144
145
146
147
148
149
150
151
152
153
154
155
156
157
158
159
160
161
162
163
164
165
166
167
168
169
170
171
172
173
174
175
176
177
178
179
180
181
182
183
184
185
186
187
188
189
190
191
192
193
194
195
196
197
198
199
200
201
202
203
204
205
206
207
208
209
210
211
212
213
214
215
216
217
218
219
220
221
222
223
224
225
226
227
228
229
230
231
232
233
234
235
236
237
238
239
240
-1
EOF
